* #variable= 828 #constraint= 759 
+1 x52 = 1 ;
+1 x53 = 0 ;
+1 x54 = 0 ;
+1 x55 = 0 ;
+1 x56 = 0 ;
+1 x57 = 0 ;
+1 x58 = 0 ;
+1 x59 = 0 ;
+1 x60 = 0 ;
+1 x61 = 0 ;
+2 x73 +1 x62 -1 x42 -1 x52 = 0 ;
+2 x74 +1 x63 -1 x43 -1 x73 -1 x53 = 0 ;
+2 x75 +1 x64 -1 x44 -1 x74 -1 x54 = 0 ;
+2 x76 +1 x65 -1 x45 -1 x75 -1 x55 = 0 ;
+2 x77 +1 x66 -1 x46 -1 x76 -1 x56 = 0 ;
+2 x78 +1 x67 -1 x47 -1 x77 -1 x57 = 0 ;
+2 x79 +1 x68 -1 x48 -1 x78 -1 x58 = 0 ;
+2 x80 +1 x69 -1 x49 -1 x79 -1 x59 = 0 ;
+2 x81 +1 x70 -1 x50 -1 x80 -1 x60 = 0 ;
+2 x82 +1 x71 -1 x51 -1 x81 -1 x61 = 0 ;
+1 x82 -1 x72 = 0 ;
+2 x83 +1 x808 -1 x788 -1 x1 = 0 ;
+2 x84 +1 x809 -1 x789 -1 x83 -1 x2 = 0 ;
+2 x85 +1 x810 -1 x790 -1 x84 -1 x3 = 0 ;
+2 x86 +1 x811 -1 x791 -1 x85 -1 x4 = 0 ;
+2 x87 +1 x812 -1 x792 -1 x86 -1 x5 = 0 ;
+2 x88 +1 x813 -1 x793 -1 x87 -1 x6 = 0 ;
+2 x89 +1 x814 -1 x794 -1 x88 -1 x7 = 0 ;
+2 x90 +1 x815 -1 x795 -1 x89 -1 x8 = 0 ;
+2 x91 +1 x816 -1 x796 -1 x90 -1 x9 = 0 ;
+2 x92 +1 x817 -1 x797 -1 x91 -1 x10 = 0 ;
+2 x93 +1 x818 -1 x798 -1 x92 -1 x11 = 0 ;
+2 x94 +1 x819 -1 x799 -1 x93 -1 x12 = 0 ;
+2 x95 +1 x820 -1 x800 -1 x94 -1 x13 = 0 ;
+2 x96 +1 x821 -1 x801 -1 x95 -1 x14 = 0 ;
+2 x97 +1 x822 -1 x802 -1 x96 -1 x15 = 0 ;
+2 x98 +1 x823 -1 x803 -1 x97 -1 x16 = 0 ;
+2 x99 +1 x824 -1 x804 -1 x98 -1 x17 = 0 ;
+2 x100 +1 x825 -1 x805 -1 x99 -1 x18 = 0 ;
+2 x101 +1 x826 -1 x806 -1 x100 -1 x19 = 0 ;
+2 x102 +1 x827 -1 x807 -1 x101 -1 x20 = 0 ;
+1 x102 -1 x828 = 0 ;
+1 x11 = 0 ;
+1 x12 = 0 ;
+1 x13 = 0 ;
+1 x14 = 0 ;
+1 x15 = 0 ;
+1 x16 = 0 ;
+1 x17 = 0 ;
+1 x18 = 0 ;
+1 x19 = 0 ;
+1 x20 = 0 ;
+1 x41 = 0 ;
+1 x31 -1 x1 >= 0 ;
+1 x31 -1 x21 >= 0 ;
-1 x31 +1 x1 +1 x21 >= 0 ;
+1 x21 = 0 ;
+1 x32 -1 x2 >= 0 ;
+1 x32 -1 x22 >= 0 ;
-1 x32 +1 x2 +1 x22 >= 0 ;
+1 x22 = 1 ;
+1 x33 -1 x3 >= 0 ;
+1 x33 -1 x23 >= 0 ;
-1 x33 +1 x3 +1 x23 >= 0 ;
+1 x23 = 0 ;
+1 x34 -1 x4 >= 0 ;
+1 x34 -1 x24 >= 0 ;
-1 x34 +1 x4 +1 x24 >= 0 ;
+1 x24 = 1 ;
+1 x35 -1 x5 >= 0 ;
+1 x35 -1 x25 >= 0 ;
-1 x35 +1 x5 +1 x25 >= 0 ;
+1 x25 = 0 ;
+1 x36 -1 x6 >= 0 ;
+1 x36 -1 x26 >= 0 ;
-1 x36 +1 x6 +1 x26 >= 0 ;
+1 x26 = 1 ;
+1 x37 -1 x7 >= 0 ;
+1 x37 -1 x27 >= 0 ;
-1 x37 +1 x7 +1 x27 >= 0 ;
+1 x27 = 0 ;
+1 x38 -1 x8 >= 0 ;
+1 x38 -1 x28 >= 0 ;
-1 x38 +1 x8 +1 x28 >= 0 ;
+1 x28 = 1 ;
+1 x39 -1 x9 >= 0 ;
+1 x39 -1 x29 >= 0 ;
-1 x39 +1 x9 +1 x29 >= 0 ;
+1 x29 = 0 ;
+1 x40 -1 x10 >= 0 ;
+1 x40 -1 x30 >= 0 ;
-1 x40 +1 x10 +1 x30 >= 0 ;
+1 x30 = 1 ;
-1 x103 +1 x31 >= 0 ;
-1 x103 +1 x62 >= 0 ;
+1 x103 -1 x31 -1 x62 >= -1 ;
+1 x103 +2 x114 +4 x125 +8 x136 +16 x147 +32 x158 +64 x169 +128 x180 +256 x191 +512 x202 +1024 x213 +2 x104 +4 x115 +8 x126 +16 x137 +32 x148 +64 x159 +128 x170 +256 x181 +512 x192 +1024 x203 +2048 x214 +4 x105 +8 x116 +16 x127 +32 x138 +64 x149 +128 x160 +256 x171 +512 x182 +1024 x193 +2048 x204 +4096 x215 +8 x106 +16 x117 +32 x128 +64 x139 +128 x150 +256 x161 +512 x172 +1024 x183 +2048 x194 +4096 x205 +8192 x216 +16 x107 +32 x118 +64 x129 +128 x140 +256 x151 +512 x162 +1024 x173 +2048 x184 +4096 x195 +8192 x206 +16384 x217 +32 x108 +64 x119 +128 x130 +256 x141 +512 x152 +1024 x163 +2048 x174 +4096 x185 +8192 x196 +16384 x207 +32768 x218 +64 x109 +128 x120 +256 x131 +512 x142 +1024 x153 +2048 x164 +4096 x175 +8192 x186 +16384 x197 +32768 x208 +65536 x219 +128 x110 +256 x121 +512 x132 +1024 x143 +2048 x154 +4096 x165 +8192 x176 +16384 x187 +32768 x198 +65536 x209 +131072 x220 +256 x111 +512 x122 +1024 x133 +2048 x144 +4096 x155 +8192 x166 +16384 x177 +32768 x188 +65536 x199 +131072 x210 +262144 x221 +512 x112 +1024 x123 +2048 x134 +4096 x145 +8192 x156 +16384 x167 +32768 x178 +65536 x189 +131072 x200 +262144 x211 +524288 x222 +1024 x113 +2048 x124 +4096 x135 +8192 x146 +16384 x157 +32768 x168 +65536 x179 +131072 x190 +262144 x201 +524288 x212 +1048576 x223 -1 x466 -2 x467 -4 x468 -8 x469 -16 x470 -32 x471 -64 x472 -128 x473 -256 x474 -512 x475 -1024 x476 -2048 x477 -4096 x478 -8192 x479 -16384 x480 -32768 x481 -65536 x482 -131072 x483 -262144 x484 -524288 x485 -1048576 x486 -2097152 x487 = 0; 
-1 x488 +1 x21 >= 0 ;
-1 x488 +1 x42 >= 0 ;
+1 x488 -1 x21 -1 x42 >= -1 ;
+1 x488 +2 x498 +4 x508 +8 x518 +16 x528 +32 x538 +64 x548 +128 x558 +256 x568 +512 x578 +2 x489 +4 x499 +8 x509 +16 x519 +32 x529 +64 x539 +128 x549 +256 x559 +512 x569 +1024 x579 +4 x490 +8 x500 +16 x510 +32 x520 +64 x530 +128 x540 +256 x550 +512 x560 +1024 x570 +2048 x580 +8 x491 +16 x501 +32 x511 +64 x521 +128 x531 +256 x541 +512 x551 +1024 x561 +2048 x571 +4096 x581 +16 x492 +32 x502 +64 x512 +128 x522 +256 x532 +512 x542 +1024 x552 +2048 x562 +4096 x572 +8192 x582 +32 x493 +64 x503 +128 x513 +256 x523 +512 x533 +1024 x543 +2048 x553 +4096 x563 +8192 x573 +16384 x583 +64 x494 +128 x504 +256 x514 +512 x524 +1024 x534 +2048 x544 +4096 x554 +8192 x564 +16384 x574 +32768 x584 +128 x495 +256 x505 +512 x515 +1024 x525 +2048 x535 +4096 x545 +8192 x555 +16384 x565 +32768 x575 +65536 x585 +256 x496 +512 x506 +1024 x516 +2048 x526 +4096 x536 +8192 x546 +16384 x556 +32768 x566 +65536 x576 +131072 x586 +512 x497 +1024 x507 +2048 x517 +4096 x527 +8192 x537 +16384 x547 +32768 x557 +65536 x567 +131072 x577 +262144 x587 -1 x788 -2 x789 -4 x790 -8 x791 -16 x792 -32 x793 -64 x794 -128 x795 -256 x796 -512 x797 -1024 x798 -2048 x799 -4096 x800 -8192 x801 -16384 x802 -32768 x803 -65536 x804 -131072 x805 -262144 x806 -524288 x807 = 0; 
+1 x808 -1 x466 +2 x809 -2 x467 +4 x810 -4 x468 +8 x811 -8 x469 +16 x812 -16 x470 +32 x813 -32 x471 +64 x814 -64 x472 +128 x815 -128 x473 +256 x816 -256 x474 +512 x817 -512 x475 +1024 x818 -1024 x476 +2048 x819 -2048 x477 +4096 x820 -4096 x478 +8192 x821 -8192 x479 +16384 x822 -16384 x480 +32768 x823 -32768 x481 +65536 x824 -65536 x482 +131072 x825 -131072 x483 +262144 x826 -262144 x484 +524288 x827 -524288 x485 +1048576 x828 -1048576 x486 >= 1 ;
-1 x114 +1 x32 >= 0 ;
-1 x114 +1 x62 >= 0 ;
+1 x114 -1 x32 -1 x62 >= -1 ;
-1 x104 +1 x31 >= 0 ;
-1 x104 +1 x63 >= 0 ;
+1 x104 -1 x31 -1 x63 >= -1 ;
-1 x498 +1 x22 >= 0 ;
-1 x498 +1 x42 >= 0 ;
+1 x498 -1 x22 -1 x42 >= -1 ;
-1 x489 +1 x21 >= 0 ;
-1 x489 +1 x43 >= 0 ;
+1 x489 -1 x21 -1 x43 >= -1 ;
-1 x125 +1 x33 >= 0 ;
-1 x125 +1 x62 >= 0 ;
+1 x125 -1 x33 -1 x62 >= -1 ;
-1 x115 +1 x32 >= 0 ;
-1 x115 +1 x63 >= 0 ;
+1 x115 -1 x32 -1 x63 >= -1 ;
-1 x105 +1 x31 >= 0 ;
-1 x105 +1 x64 >= 0 ;
+1 x105 -1 x31 -1 x64 >= -1 ;
-1 x508 +1 x23 >= 0 ;
-1 x508 +1 x42 >= 0 ;
+1 x508 -1 x23 -1 x42 >= -1 ;
-1 x499 +1 x22 >= 0 ;
-1 x499 +1 x43 >= 0 ;
+1 x499 -1 x22 -1 x43 >= -1 ;
-1 x490 +1 x21 >= 0 ;
-1 x490 +1 x44 >= 0 ;
+1 x490 -1 x21 -1 x44 >= -1 ;
-1 x136 +1 x34 >= 0 ;
-1 x136 +1 x62 >= 0 ;
+1 x136 -1 x34 -1 x62 >= -1 ;
-1 x126 +1 x33 >= 0 ;
-1 x126 +1 x63 >= 0 ;
+1 x126 -1 x33 -1 x63 >= -1 ;
-1 x116 +1 x32 >= 0 ;
-1 x116 +1 x64 >= 0 ;
+1 x116 -1 x32 -1 x64 >= -1 ;
-1 x106 +1 x31 >= 0 ;
-1 x106 +1 x65 >= 0 ;
+1 x106 -1 x31 -1 x65 >= -1 ;
-1 x518 +1 x24 >= 0 ;
-1 x518 +1 x42 >= 0 ;
+1 x518 -1 x24 -1 x42 >= -1 ;
-1 x509 +1 x23 >= 0 ;
-1 x509 +1 x43 >= 0 ;
+1 x509 -1 x23 -1 x43 >= -1 ;
-1 x500 +1 x22 >= 0 ;
-1 x500 +1 x44 >= 0 ;
+1 x500 -1 x22 -1 x44 >= -1 ;
-1 x491 +1 x21 >= 0 ;
-1 x491 +1 x45 >= 0 ;
+1 x491 -1 x21 -1 x45 >= -1 ;
-1 x147 +1 x35 >= 0 ;
-1 x147 +1 x62 >= 0 ;
+1 x147 -1 x35 -1 x62 >= -1 ;
-1 x137 +1 x34 >= 0 ;
-1 x137 +1 x63 >= 0 ;
+1 x137 -1 x34 -1 x63 >= -1 ;
-1 x127 +1 x33 >= 0 ;
-1 x127 +1 x64 >= 0 ;
+1 x127 -1 x33 -1 x64 >= -1 ;
-1 x117 +1 x32 >= 0 ;
-1 x117 +1 x65 >= 0 ;
+1 x117 -1 x32 -1 x65 >= -1 ;
-1 x107 +1 x31 >= 0 ;
-1 x107 +1 x66 >= 0 ;
+1 x107 -1 x31 -1 x66 >= -1 ;
-1 x528 +1 x25 >= 0 ;
-1 x528 +1 x42 >= 0 ;
+1 x528 -1 x25 -1 x42 >= -1 ;
-1 x519 +1 x24 >= 0 ;
-1 x519 +1 x43 >= 0 ;
+1 x519 -1 x24 -1 x43 >= -1 ;
-1 x510 +1 x23 >= 0 ;
-1 x510 +1 x44 >= 0 ;
+1 x510 -1 x23 -1 x44 >= -1 ;
-1 x501 +1 x22 >= 0 ;
-1 x501 +1 x45 >= 0 ;
+1 x501 -1 x22 -1 x45 >= -1 ;
-1 x492 +1 x21 >= 0 ;
-1 x492 +1 x46 >= 0 ;
+1 x492 -1 x21 -1 x46 >= -1 ;
-1 x158 +1 x36 >= 0 ;
-1 x158 +1 x62 >= 0 ;
+1 x158 -1 x36 -1 x62 >= -1 ;
-1 x148 +1 x35 >= 0 ;
-1 x148 +1 x63 >= 0 ;
+1 x148 -1 x35 -1 x63 >= -1 ;
-1 x138 +1 x34 >= 0 ;
-1 x138 +1 x64 >= 0 ;
+1 x138 -1 x34 -1 x64 >= -1 ;
-1 x128 +1 x33 >= 0 ;
-1 x128 +1 x65 >= 0 ;
+1 x128 -1 x33 -1 x65 >= -1 ;
-1 x118 +1 x32 >= 0 ;
-1 x118 +1 x66 >= 0 ;
+1 x118 -1 x32 -1 x66 >= -1 ;
-1 x108 +1 x31 >= 0 ;
-1 x108 +1 x67 >= 0 ;
+1 x108 -1 x31 -1 x67 >= -1 ;
-1 x538 +1 x26 >= 0 ;
-1 x538 +1 x42 >= 0 ;
+1 x538 -1 x26 -1 x42 >= -1 ;
-1 x529 +1 x25 >= 0 ;
-1 x529 +1 x43 >= 0 ;
+1 x529 -1 x25 -1 x43 >= -1 ;
-1 x520 +1 x24 >= 0 ;
-1 x520 +1 x44 >= 0 ;
+1 x520 -1 x24 -1 x44 >= -1 ;
-1 x511 +1 x23 >= 0 ;
-1 x511 +1 x45 >= 0 ;
+1 x511 -1 x23 -1 x45 >= -1 ;
-1 x502 +1 x22 >= 0 ;
-1 x502 +1 x46 >= 0 ;
+1 x502 -1 x22 -1 x46 >= -1 ;
-1 x493 +1 x21 >= 0 ;
-1 x493 +1 x47 >= 0 ;
+1 x493 -1 x21 -1 x47 >= -1 ;
-1 x169 +1 x37 >= 0 ;
-1 x169 +1 x62 >= 0 ;
+1 x169 -1 x37 -1 x62 >= -1 ;
-1 x159 +1 x36 >= 0 ;
-1 x159 +1 x63 >= 0 ;
+1 x159 -1 x36 -1 x63 >= -1 ;
-1 x149 +1 x35 >= 0 ;
-1 x149 +1 x64 >= 0 ;
+1 x149 -1 x35 -1 x64 >= -1 ;
-1 x139 +1 x34 >= 0 ;
-1 x139 +1 x65 >= 0 ;
+1 x139 -1 x34 -1 x65 >= -1 ;
-1 x129 +1 x33 >= 0 ;
-1 x129 +1 x66 >= 0 ;
+1 x129 -1 x33 -1 x66 >= -1 ;
-1 x119 +1 x32 >= 0 ;
-1 x119 +1 x67 >= 0 ;
+1 x119 -1 x32 -1 x67 >= -1 ;
-1 x109 +1 x31 >= 0 ;
-1 x109 +1 x68 >= 0 ;
+1 x109 -1 x31 -1 x68 >= -1 ;
-1 x548 +1 x27 >= 0 ;
-1 x548 +1 x42 >= 0 ;
+1 x548 -1 x27 -1 x42 >= -1 ;
-1 x539 +1 x26 >= 0 ;
-1 x539 +1 x43 >= 0 ;
+1 x539 -1 x26 -1 x43 >= -1 ;
-1 x530 +1 x25 >= 0 ;
-1 x530 +1 x44 >= 0 ;
+1 x530 -1 x25 -1 x44 >= -1 ;
-1 x521 +1 x24 >= 0 ;
-1 x521 +1 x45 >= 0 ;
+1 x521 -1 x24 -1 x45 >= -1 ;
-1 x512 +1 x23 >= 0 ;
-1 x512 +1 x46 >= 0 ;
+1 x512 -1 x23 -1 x46 >= -1 ;
-1 x503 +1 x22 >= 0 ;
-1 x503 +1 x47 >= 0 ;
+1 x503 -1 x22 -1 x47 >= -1 ;
-1 x494 +1 x21 >= 0 ;
-1 x494 +1 x48 >= 0 ;
+1 x494 -1 x21 -1 x48 >= -1 ;
-1 x180 +1 x38 >= 0 ;
-1 x180 +1 x62 >= 0 ;
+1 x180 -1 x38 -1 x62 >= -1 ;
-1 x170 +1 x37 >= 0 ;
-1 x170 +1 x63 >= 0 ;
+1 x170 -1 x37 -1 x63 >= -1 ;
-1 x160 +1 x36 >= 0 ;
-1 x160 +1 x64 >= 0 ;
+1 x160 -1 x36 -1 x64 >= -1 ;
-1 x150 +1 x35 >= 0 ;
-1 x150 +1 x65 >= 0 ;
+1 x150 -1 x35 -1 x65 >= -1 ;
-1 x140 +1 x34 >= 0 ;
-1 x140 +1 x66 >= 0 ;
+1 x140 -1 x34 -1 x66 >= -1 ;
-1 x130 +1 x33 >= 0 ;
-1 x130 +1 x67 >= 0 ;
+1 x130 -1 x33 -1 x67 >= -1 ;
-1 x120 +1 x32 >= 0 ;
-1 x120 +1 x68 >= 0 ;
+1 x120 -1 x32 -1 x68 >= -1 ;
-1 x110 +1 x31 >= 0 ;
-1 x110 +1 x69 >= 0 ;
+1 x110 -1 x31 -1 x69 >= -1 ;
-1 x558 +1 x28 >= 0 ;
-1 x558 +1 x42 >= 0 ;
+1 x558 -1 x28 -1 x42 >= -1 ;
-1 x549 +1 x27 >= 0 ;
-1 x549 +1 x43 >= 0 ;
+1 x549 -1 x27 -1 x43 >= -1 ;
-1 x540 +1 x26 >= 0 ;
-1 x540 +1 x44 >= 0 ;
+1 x540 -1 x26 -1 x44 >= -1 ;
-1 x531 +1 x25 >= 0 ;
-1 x531 +1 x45 >= 0 ;
+1 x531 -1 x25 -1 x45 >= -1 ;
-1 x522 +1 x24 >= 0 ;
-1 x522 +1 x46 >= 0 ;
+1 x522 -1 x24 -1 x46 >= -1 ;
-1 x513 +1 x23 >= 0 ;
-1 x513 +1 x47 >= 0 ;
+1 x513 -1 x23 -1 x47 >= -1 ;
-1 x504 +1 x22 >= 0 ;
-1 x504 +1 x48 >= 0 ;
+1 x504 -1 x22 -1 x48 >= -1 ;
-1 x495 +1 x21 >= 0 ;
-1 x495 +1 x49 >= 0 ;
+1 x495 -1 x21 -1 x49 >= -1 ;
-1 x191 +1 x39 >= 0 ;
-1 x191 +1 x62 >= 0 ;
+1 x191 -1 x39 -1 x62 >= -1 ;
-1 x181 +1 x38 >= 0 ;
-1 x181 +1 x63 >= 0 ;
+1 x181 -1 x38 -1 x63 >= -1 ;
-1 x171 +1 x37 >= 0 ;
-1 x171 +1 x64 >= 0 ;
+1 x171 -1 x37 -1 x64 >= -1 ;
-1 x161 +1 x36 >= 0 ;
-1 x161 +1 x65 >= 0 ;
+1 x161 -1 x36 -1 x65 >= -1 ;
-1 x151 +1 x35 >= 0 ;
-1 x151 +1 x66 >= 0 ;
+1 x151 -1 x35 -1 x66 >= -1 ;
-1 x141 +1 x34 >= 0 ;
-1 x141 +1 x67 >= 0 ;
+1 x141 -1 x34 -1 x67 >= -1 ;
-1 x131 +1 x33 >= 0 ;
-1 x131 +1 x68 >= 0 ;
+1 x131 -1 x33 -1 x68 >= -1 ;
-1 x121 +1 x32 >= 0 ;
-1 x121 +1 x69 >= 0 ;
+1 x121 -1 x32 -1 x69 >= -1 ;
-1 x111 +1 x31 >= 0 ;
-1 x111 +1 x70 >= 0 ;
+1 x111 -1 x31 -1 x70 >= -1 ;
-1 x568 +1 x29 >= 0 ;
-1 x568 +1 x42 >= 0 ;
+1 x568 -1 x29 -1 x42 >= -1 ;
-1 x559 +1 x28 >= 0 ;
-1 x559 +1 x43 >= 0 ;
+1 x559 -1 x28 -1 x43 >= -1 ;
-1 x550 +1 x27 >= 0 ;
-1 x550 +1 x44 >= 0 ;
+1 x550 -1 x27 -1 x44 >= -1 ;
-1 x541 +1 x26 >= 0 ;
-1 x541 +1 x45 >= 0 ;
+1 x541 -1 x26 -1 x45 >= -1 ;
-1 x532 +1 x25 >= 0 ;
-1 x532 +1 x46 >= 0 ;
+1 x532 -1 x25 -1 x46 >= -1 ;
-1 x523 +1 x24 >= 0 ;
-1 x523 +1 x47 >= 0 ;
+1 x523 -1 x24 -1 x47 >= -1 ;
-1 x514 +1 x23 >= 0 ;
-1 x514 +1 x48 >= 0 ;
+1 x514 -1 x23 -1 x48 >= -1 ;
-1 x505 +1 x22 >= 0 ;
-1 x505 +1 x49 >= 0 ;
+1 x505 -1 x22 -1 x49 >= -1 ;
-1 x496 +1 x21 >= 0 ;
-1 x496 +1 x50 >= 0 ;
+1 x496 -1 x21 -1 x50 >= -1 ;
-1 x202 +1 x40 >= 0 ;
-1 x202 +1 x62 >= 0 ;
+1 x202 -1 x40 -1 x62 >= -1 ;
-1 x192 +1 x39 >= 0 ;
-1 x192 +1 x63 >= 0 ;
+1 x192 -1 x39 -1 x63 >= -1 ;
-1 x182 +1 x38 >= 0 ;
-1 x182 +1 x64 >= 0 ;
+1 x182 -1 x38 -1 x64 >= -1 ;
-1 x172 +1 x37 >= 0 ;
-1 x172 +1 x65 >= 0 ;
+1 x172 -1 x37 -1 x65 >= -1 ;
-1 x162 +1 x36 >= 0 ;
-1 x162 +1 x66 >= 0 ;
+1 x162 -1 x36 -1 x66 >= -1 ;
-1 x152 +1 x35 >= 0 ;
-1 x152 +1 x67 >= 0 ;
+1 x152 -1 x35 -1 x67 >= -1 ;
-1 x142 +1 x34 >= 0 ;
-1 x142 +1 x68 >= 0 ;
+1 x142 -1 x34 -1 x68 >= -1 ;
-1 x132 +1 x33 >= 0 ;
-1 x132 +1 x69 >= 0 ;
+1 x132 -1 x33 -1 x69 >= -1 ;
-1 x122 +1 x32 >= 0 ;
-1 x122 +1 x70 >= 0 ;
+1 x122 -1 x32 -1 x70 >= -1 ;
-1 x112 +1 x31 >= 0 ;
-1 x112 +1 x71 >= 0 ;
+1 x112 -1 x31 -1 x71 >= -1 ;
-1 x578 +1 x30 >= 0 ;
-1 x578 +1 x42 >= 0 ;
+1 x578 -1 x30 -1 x42 >= -1 ;
-1 x569 +1 x29 >= 0 ;
-1 x569 +1 x43 >= 0 ;
+1 x569 -1 x29 -1 x43 >= -1 ;
-1 x560 +1 x28 >= 0 ;
-1 x560 +1 x44 >= 0 ;
+1 x560 -1 x28 -1 x44 >= -1 ;
-1 x551 +1 x27 >= 0 ;
-1 x551 +1 x45 >= 0 ;
+1 x551 -1 x27 -1 x45 >= -1 ;
-1 x542 +1 x26 >= 0 ;
-1 x542 +1 x46 >= 0 ;
+1 x542 -1 x26 -1 x46 >= -1 ;
-1 x533 +1 x25 >= 0 ;
-1 x533 +1 x47 >= 0 ;
+1 x533 -1 x25 -1 x47 >= -1 ;
-1 x524 +1 x24 >= 0 ;
-1 x524 +1 x48 >= 0 ;
+1 x524 -1 x24 -1 x48 >= -1 ;
-1 x515 +1 x23 >= 0 ;
-1 x515 +1 x49 >= 0 ;
+1 x515 -1 x23 -1 x49 >= -1 ;
-1 x506 +1 x22 >= 0 ;
-1 x506 +1 x50 >= 0 ;
+1 x506 -1 x22 -1 x50 >= -1 ;
-1 x497 +1 x21 >= 0 ;
-1 x497 +1 x51 >= 0 ;
+1 x497 -1 x21 -1 x51 >= -1 ;
-1 x213 +1 x41 >= 0 ;
-1 x213 +1 x62 >= 0 ;
+1 x213 -1 x41 -1 x62 >= -1 ;
-1 x203 +1 x40 >= 0 ;
-1 x203 +1 x63 >= 0 ;
+1 x203 -1 x40 -1 x63 >= -1 ;
-1 x193 +1 x39 >= 0 ;
-1 x193 +1 x64 >= 0 ;
+1 x193 -1 x39 -1 x64 >= -1 ;
-1 x183 +1 x38 >= 0 ;
-1 x183 +1 x65 >= 0 ;
+1 x183 -1 x38 -1 x65 >= -1 ;
-1 x173 +1 x37 >= 0 ;
-1 x173 +1 x66 >= 0 ;
+1 x173 -1 x37 -1 x66 >= -1 ;
-1 x163 +1 x36 >= 0 ;
-1 x163 +1 x67 >= 0 ;
+1 x163 -1 x36 -1 x67 >= -1 ;
-1 x153 +1 x35 >= 0 ;
-1 x153 +1 x68 >= 0 ;
+1 x153 -1 x35 -1 x68 >= -1 ;
-1 x143 +1 x34 >= 0 ;
-1 x143 +1 x69 >= 0 ;
+1 x143 -1 x34 -1 x69 >= -1 ;
-1 x133 +1 x33 >= 0 ;
-1 x133 +1 x70 >= 0 ;
+1 x133 -1 x33 -1 x70 >= -1 ;
-1 x123 +1 x32 >= 0 ;
-1 x123 +1 x71 >= 0 ;
+1 x123 -1 x32 -1 x71 >= -1 ;
-1 x113 +1 x31 >= 0 ;
-1 x113 +1 x72 >= 0 ;
+1 x113 -1 x31 -1 x72 >= -1 ;
-1 x579 +1 x30 >= 0 ;
-1 x579 +1 x43 >= 0 ;
+1 x579 -1 x30 -1 x43 >= -1 ;
-1 x570 +1 x29 >= 0 ;
-1 x570 +1 x44 >= 0 ;
+1 x570 -1 x29 -1 x44 >= -1 ;
-1 x561 +1 x28 >= 0 ;
-1 x561 +1 x45 >= 0 ;
+1 x561 -1 x28 -1 x45 >= -1 ;
-1 x552 +1 x27 >= 0 ;
-1 x552 +1 x46 >= 0 ;
+1 x552 -1 x27 -1 x46 >= -1 ;
-1 x543 +1 x26 >= 0 ;
-1 x543 +1 x47 >= 0 ;
+1 x543 -1 x26 -1 x47 >= -1 ;
-1 x534 +1 x25 >= 0 ;
-1 x534 +1 x48 >= 0 ;
+1 x534 -1 x25 -1 x48 >= -1 ;
-1 x525 +1 x24 >= 0 ;
-1 x525 +1 x49 >= 0 ;
+1 x525 -1 x24 -1 x49 >= -1 ;
-1 x516 +1 x23 >= 0 ;
-1 x516 +1 x50 >= 0 ;
+1 x516 -1 x23 -1 x50 >= -1 ;
-1 x507 +1 x22 >= 0 ;
-1 x507 +1 x51 >= 0 ;
+1 x507 -1 x22 -1 x51 >= -1 ;
-1 x214 +1 x41 >= 0 ;
-1 x214 +1 x63 >= 0 ;
+1 x214 -1 x41 -1 x63 >= -1 ;
-1 x204 +1 x40 >= 0 ;
-1 x204 +1 x64 >= 0 ;
+1 x204 -1 x40 -1 x64 >= -1 ;
-1 x194 +1 x39 >= 0 ;
-1 x194 +1 x65 >= 0 ;
+1 x194 -1 x39 -1 x65 >= -1 ;
-1 x184 +1 x38 >= 0 ;
-1 x184 +1 x66 >= 0 ;
+1 x184 -1 x38 -1 x66 >= -1 ;
-1 x174 +1 x37 >= 0 ;
-1 x174 +1 x67 >= 0 ;
+1 x174 -1 x37 -1 x67 >= -1 ;
-1 x164 +1 x36 >= 0 ;
-1 x164 +1 x68 >= 0 ;
+1 x164 -1 x36 -1 x68 >= -1 ;
-1 x154 +1 x35 >= 0 ;
-1 x154 +1 x69 >= 0 ;
+1 x154 -1 x35 -1 x69 >= -1 ;
-1 x144 +1 x34 >= 0 ;
-1 x144 +1 x70 >= 0 ;
+1 x144 -1 x34 -1 x70 >= -1 ;
-1 x134 +1 x33 >= 0 ;
-1 x134 +1 x71 >= 0 ;
+1 x134 -1 x33 -1 x71 >= -1 ;
-1 x124 +1 x32 >= 0 ;
-1 x124 +1 x72 >= 0 ;
+1 x124 -1 x32 -1 x72 >= -1 ;
-1 x580 +1 x30 >= 0 ;
-1 x580 +1 x44 >= 0 ;
+1 x580 -1 x30 -1 x44 >= -1 ;
-1 x571 +1 x29 >= 0 ;
-1 x571 +1 x45 >= 0 ;
+1 x571 -1 x29 -1 x45 >= -1 ;
-1 x562 +1 x28 >= 0 ;
-1 x562 +1 x46 >= 0 ;
+1 x562 -1 x28 -1 x46 >= -1 ;
-1 x553 +1 x27 >= 0 ;
-1 x553 +1 x47 >= 0 ;
+1 x553 -1 x27 -1 x47 >= -1 ;
-1 x544 +1 x26 >= 0 ;
-1 x544 +1 x48 >= 0 ;
+1 x544 -1 x26 -1 x48 >= -1 ;
-1 x535 +1 x25 >= 0 ;
-1 x535 +1 x49 >= 0 ;
+1 x535 -1 x25 -1 x49 >= -1 ;
-1 x526 +1 x24 >= 0 ;
-1 x526 +1 x50 >= 0 ;
+1 x526 -1 x24 -1 x50 >= -1 ;
-1 x517 +1 x23 >= 0 ;
-1 x517 +1 x51 >= 0 ;
+1 x517 -1 x23 -1 x51 >= -1 ;
-1 x215 +1 x41 >= 0 ;
-1 x215 +1 x64 >= 0 ;
+1 x215 -1 x41 -1 x64 >= -1 ;
-1 x205 +1 x40 >= 0 ;
-1 x205 +1 x65 >= 0 ;
+1 x205 -1 x40 -1 x65 >= -1 ;
-1 x195 +1 x39 >= 0 ;
-1 x195 +1 x66 >= 0 ;
+1 x195 -1 x39 -1 x66 >= -1 ;
-1 x185 +1 x38 >= 0 ;
-1 x185 +1 x67 >= 0 ;
+1 x185 -1 x38 -1 x67 >= -1 ;
-1 x175 +1 x37 >= 0 ;
-1 x175 +1 x68 >= 0 ;
+1 x175 -1 x37 -1 x68 >= -1 ;
-1 x165 +1 x36 >= 0 ;
-1 x165 +1 x69 >= 0 ;
+1 x165 -1 x36 -1 x69 >= -1 ;
-1 x155 +1 x35 >= 0 ;
-1 x155 +1 x70 >= 0 ;
+1 x155 -1 x35 -1 x70 >= -1 ;
-1 x145 +1 x34 >= 0 ;
-1 x145 +1 x71 >= 0 ;
+1 x145 -1 x34 -1 x71 >= -1 ;
-1 x135 +1 x33 >= 0 ;
-1 x135 +1 x72 >= 0 ;
+1 x135 -1 x33 -1 x72 >= -1 ;
-1 x581 +1 x30 >= 0 ;
-1 x581 +1 x45 >= 0 ;
+1 x581 -1 x30 -1 x45 >= -1 ;
-1 x572 +1 x29 >= 0 ;
-1 x572 +1 x46 >= 0 ;
+1 x572 -1 x29 -1 x46 >= -1 ;
-1 x563 +1 x28 >= 0 ;
-1 x563 +1 x47 >= 0 ;
+1 x563 -1 x28 -1 x47 >= -1 ;
-1 x554 +1 x27 >= 0 ;
-1 x554 +1 x48 >= 0 ;
+1 x554 -1 x27 -1 x48 >= -1 ;
-1 x545 +1 x26 >= 0 ;
-1 x545 +1 x49 >= 0 ;
+1 x545 -1 x26 -1 x49 >= -1 ;
-1 x536 +1 x25 >= 0 ;
-1 x536 +1 x50 >= 0 ;
+1 x536 -1 x25 -1 x50 >= -1 ;
-1 x527 +1 x24 >= 0 ;
-1 x527 +1 x51 >= 0 ;
+1 x527 -1 x24 -1 x51 >= -1 ;
-1 x216 +1 x41 >= 0 ;
-1 x216 +1 x65 >= 0 ;
+1 x216 -1 x41 -1 x65 >= -1 ;
-1 x206 +1 x40 >= 0 ;
-1 x206 +1 x66 >= 0 ;
+1 x206 -1 x40 -1 x66 >= -1 ;
-1 x196 +1 x39 >= 0 ;
-1 x196 +1 x67 >= 0 ;
+1 x196 -1 x39 -1 x67 >= -1 ;
-1 x186 +1 x38 >= 0 ;
-1 x186 +1 x68 >= 0 ;
+1 x186 -1 x38 -1 x68 >= -1 ;
-1 x176 +1 x37 >= 0 ;
-1 x176 +1 x69 >= 0 ;
+1 x176 -1 x37 -1 x69 >= -1 ;
-1 x166 +1 x36 >= 0 ;
-1 x166 +1 x70 >= 0 ;
+1 x166 -1 x36 -1 x70 >= -1 ;
-1 x156 +1 x35 >= 0 ;
-1 x156 +1 x71 >= 0 ;
+1 x156 -1 x35 -1 x71 >= -1 ;
-1 x146 +1 x34 >= 0 ;
-1 x146 +1 x72 >= 0 ;
+1 x146 -1 x34 -1 x72 >= -1 ;
-1 x582 +1 x30 >= 0 ;
-1 x582 +1 x46 >= 0 ;
+1 x582 -1 x30 -1 x46 >= -1 ;
-1 x573 +1 x29 >= 0 ;
-1 x573 +1 x47 >= 0 ;
+1 x573 -1 x29 -1 x47 >= -1 ;
-1 x564 +1 x28 >= 0 ;
-1 x564 +1 x48 >= 0 ;
+1 x564 -1 x28 -1 x48 >= -1 ;
-1 x555 +1 x27 >= 0 ;
-1 x555 +1 x49 >= 0 ;
+1 x555 -1 x27 -1 x49 >= -1 ;
-1 x546 +1 x26 >= 0 ;
-1 x546 +1 x50 >= 0 ;
+1 x546 -1 x26 -1 x50 >= -1 ;
-1 x537 +1 x25 >= 0 ;
-1 x537 +1 x51 >= 0 ;
+1 x537 -1 x25 -1 x51 >= -1 ;
-1 x217 +1 x41 >= 0 ;
-1 x217 +1 x66 >= 0 ;
+1 x217 -1 x41 -1 x66 >= -1 ;
-1 x207 +1 x40 >= 0 ;
-1 x207 +1 x67 >= 0 ;
+1 x207 -1 x40 -1 x67 >= -1 ;
-1 x197 +1 x39 >= 0 ;
-1 x197 +1 x68 >= 0 ;
+1 x197 -1 x39 -1 x68 >= -1 ;
-1 x187 +1 x38 >= 0 ;
-1 x187 +1 x69 >= 0 ;
+1 x187 -1 x38 -1 x69 >= -1 ;
-1 x177 +1 x37 >= 0 ;
-1 x177 +1 x70 >= 0 ;
+1 x177 -1 x37 -1 x70 >= -1 ;
-1 x167 +1 x36 >= 0 ;
-1 x167 +1 x71 >= 0 ;
+1 x167 -1 x36 -1 x71 >= -1 ;
-1 x157 +1 x35 >= 0 ;
-1 x157 +1 x72 >= 0 ;
+1 x157 -1 x35 -1 x72 >= -1 ;
-1 x583 +1 x30 >= 0 ;
-1 x583 +1 x47 >= 0 ;
+1 x583 -1 x30 -1 x47 >= -1 ;
-1 x574 +1 x29 >= 0 ;
-1 x574 +1 x48 >= 0 ;
+1 x574 -1 x29 -1 x48 >= -1 ;
-1 x565 +1 x28 >= 0 ;
-1 x565 +1 x49 >= 0 ;
+1 x565 -1 x28 -1 x49 >= -1 ;
-1 x556 +1 x27 >= 0 ;
-1 x556 +1 x50 >= 0 ;
+1 x556 -1 x27 -1 x50 >= -1 ;
-1 x547 +1 x26 >= 0 ;
-1 x547 +1 x51 >= 0 ;
+1 x547 -1 x26 -1 x51 >= -1 ;
-1 x218 +1 x41 >= 0 ;
-1 x218 +1 x67 >= 0 ;
+1 x218 -1 x41 -1 x67 >= -1 ;
-1 x208 +1 x40 >= 0 ;
-1 x208 +1 x68 >= 0 ;
+1 x208 -1 x40 -1 x68 >= -1 ;
-1 x198 +1 x39 >= 0 ;
-1 x198 +1 x69 >= 0 ;
+1 x198 -1 x39 -1 x69 >= -1 ;
-1 x188 +1 x38 >= 0 ;
-1 x188 +1 x70 >= 0 ;
+1 x188 -1 x38 -1 x70 >= -1 ;
-1 x178 +1 x37 >= 0 ;
-1 x178 +1 x71 >= 0 ;
+1 x178 -1 x37 -1 x71 >= -1 ;
-1 x168 +1 x36 >= 0 ;
-1 x168 +1 x72 >= 0 ;
+1 x168 -1 x36 -1 x72 >= -1 ;
-1 x584 +1 x30 >= 0 ;
-1 x584 +1 x48 >= 0 ;
+1 x584 -1 x30 -1 x48 >= -1 ;
-1 x575 +1 x29 >= 0 ;
-1 x575 +1 x49 >= 0 ;
+1 x575 -1 x29 -1 x49 >= -1 ;
-1 x566 +1 x28 >= 0 ;
-1 x566 +1 x50 >= 0 ;
+1 x566 -1 x28 -1 x50 >= -1 ;
-1 x557 +1 x27 >= 0 ;
-1 x557 +1 x51 >= 0 ;
+1 x557 -1 x27 -1 x51 >= -1 ;
-1 x219 +1 x41 >= 0 ;
-1 x219 +1 x68 >= 0 ;
+1 x219 -1 x41 -1 x68 >= -1 ;
-1 x209 +1 x40 >= 0 ;
-1 x209 +1 x69 >= 0 ;
+1 x209 -1 x40 -1 x69 >= -1 ;
-1 x199 +1 x39 >= 0 ;
-1 x199 +1 x70 >= 0 ;
+1 x199 -1 x39 -1 x70 >= -1 ;
-1 x189 +1 x38 >= 0 ;
-1 x189 +1 x71 >= 0 ;
+1 x189 -1 x38 -1 x71 >= -1 ;
-1 x179 +1 x37 >= 0 ;
-1 x179 +1 x72 >= 0 ;
+1 x179 -1 x37 -1 x72 >= -1 ;
-1 x585 +1 x30 >= 0 ;
-1 x585 +1 x49 >= 0 ;
+1 x585 -1 x30 -1 x49 >= -1 ;
-1 x576 +1 x29 >= 0 ;
-1 x576 +1 x50 >= 0 ;
+1 x576 -1 x29 -1 x50 >= -1 ;
-1 x567 +1 x28 >= 0 ;
-1 x567 +1 x51 >= 0 ;
+1 x567 -1 x28 -1 x51 >= -1 ;
-1 x220 +1 x41 >= 0 ;
-1 x220 +1 x69 >= 0 ;
+1 x220 -1 x41 -1 x69 >= -1 ;
-1 x210 +1 x40 >= 0 ;
-1 x210 +1 x70 >= 0 ;
+1 x210 -1 x40 -1 x70 >= -1 ;
-1 x200 +1 x39 >= 0 ;
-1 x200 +1 x71 >= 0 ;
+1 x200 -1 x39 -1 x71 >= -1 ;
-1 x190 +1 x38 >= 0 ;
-1 x190 +1 x72 >= 0 ;
+1 x190 -1 x38 -1 x72 >= -1 ;
-1 x586 +1 x30 >= 0 ;
-1 x586 +1 x50 >= 0 ;
+1 x586 -1 x30 -1 x50 >= -1 ;
-1 x577 +1 x29 >= 0 ;
-1 x577 +1 x51 >= 0 ;
+1 x577 -1 x29 -1 x51 >= -1 ;
-1 x221 +1 x41 >= 0 ;
-1 x221 +1 x70 >= 0 ;
+1 x221 -1 x41 -1 x70 >= -1 ;
-1 x211 +1 x40 >= 0 ;
-1 x211 +1 x71 >= 0 ;
+1 x211 -1 x40 -1 x71 >= -1 ;
-1 x201 +1 x39 >= 0 ;
-1 x201 +1 x72 >= 0 ;
+1 x201 -1 x39 -1 x72 >= -1 ;
-1 x587 +1 x30 >= 0 ;
-1 x587 +1 x51 >= 0 ;
+1 x587 -1 x30 -1 x51 >= -1 ;
-1 x222 +1 x41 >= 0 ;
-1 x222 +1 x71 >= 0 ;
+1 x222 -1 x41 -1 x71 >= -1 ;
-1 x212 +1 x40 >= 0 ;
-1 x212 +1 x72 >= 0 ;
+1 x212 -1 x40 -1 x72 >= -1 ;
-1 x223 +1 x41 >= 0 ;
-1 x223 +1 x72 >= 0 ;
+1 x223 -1 x41 -1 x72 >= -1 ;
